(set-logic QF_UF)
(declare-fun car () Bool)
(declare-fun circuit () Bool)
(declare-fun clk () Bool)
(declare-fun prt () Bool)
(assert (or clk (not prt) (not car)))
(assert prt)
(assert (not clk))
(assert car)
(check-sat)
(exit)
